200
150
100
98
98
98
98
97
97
97
96
96
95
95
95
94
94
94
93
92
91
91
91
90
89
89
88
88
87
87
87
87
87
86
86
86
86
85
85
85
84
84
84
83
83
82
81
80
80
80
80
80
79
78
78
78
78
77
77
77
77
77
77
77
76
76
76
74
74
74
74
74
73
73
73
72
71
71
71
69
69
69
69
69
68
68
67
67
67
66
66
66
65
65
65
65
64
64
64
62
62
62
62
62
61
61
61
61
59
59
59
57
57
57
56
55
55
54
52
52
52
51
51
50
50
50
50
49
49
48
48
47
46
46
45
45
45
44
44
44
43
42
41
41
41
40
39
39
38
37
37
37
37
37
36
36
35
35
35
34
34
34
33
33
33
32
31
31
31
31
30
30
30
29
29
29
28
28
28
28
27
27
27
27
26
26
25
25
24
24
24
23
23
23
22
22
22
22
21
21
20
20
